Log file: C:\Users\user\robust_bilevel_network_games\true_dro\S20_beta0p5_cov95\log_sioux_falls_20260417_1428367.txt
Started: 2026-04-17T14:28:09.368


======================================================================
INSTANCE: sioux_falls (S=20, β=0.5, ε̂=0.58, ε̃=0.58)
======================================================================
============================================================
Sioux-Falls Network Summary
============================================================
Number of nodes: 24
Number of arcs (incl. dummy): 77
Number of regular arcs: 76
Number of interdictable arcs: 66
Source node: s (1)
Sink node: t (24)
Node-incidence matrix N dimensions: (23, 77)

Sparsity Information:
  Arc-arc adjacency: 864 / 5776 pairs (85.0% sparse)
  Node-arc incidence: 148 / 1748 pairs (91.5% sparse)

First 15 arcs:
  Arc 1: ("10", "11") [Interdictable: ✓]
  Arc 2: ("10", "15") [Interdictable: ✓]
  Arc 3: ("10", "16") [Interdictable: ✓]
  Arc 4: ("10", "17") [Interdictable: ✓]
  Arc 5: ("10", "9") [Interdictable: ✓]
  Arc 6: ("11", "10") [Interdictable: ✓]
  Arc 7: ("11", "12") [Interdictable: ✓]
  Arc 8: ("11", "14") [Interdictable: ✓]
  Arc 9: ("11", "4") [Interdictable: ✓]
  Arc 10: ("12", "11") [Interdictable: ✓]
  Arc 11: ("12", "13") [Interdictable: ✓]
  Arc 12: ("12", "3") [Interdictable: ✓]
  Arc 13: ("13", "12") [Interdictable: ✓]
  Arc 14: ("13", "t") [Interdictable: ✗]
  Arc 15: ("14", "11") [Interdictable: ✓]
============================================================
  |A|=76, S=20, γ=2, w=1.9805, λU=2.0
  ε̂=0.58, ε̃=0.58

----------------------------------------
VI-only OMP diagnostic (no Benders cuts)
Set parameter Username
Set parameter LicenseID to value 2742039
Academic license - for non-commercial use only - expires 2026-11-20
Set parameter OutputFlag to value 1
Set parameter OutputFlag to value 1
Gurobi Optimizer version 13.0.0 build v13.0.0rc1 (win64 - Windows 10.0 (19045.2))

CPU model: AMD Ryzen 9 5900X 12-Core Processor, instruction set [SSE2|AVX|AVX2]
Thread count: 12 physical cores, 24 logical processors, using up to 24 threads

Optimize a model with 6112 rows, 3577 columns and 18067 nonzeros (Min)
Model fingerprint: 0x8ba74a64
Model has 1 linear objective coefficients
Variable types: 3501 continuous, 76 integer (76 binary)
Coefficient statistics:
  Matrix range     [2e-02, 1e+00]
  Objective range  [1e+00, 1e+00]
  Bounds range     [1e+00, 1e+04]
  RHS range        [1e+00, 2e+00]
Found heuristic solution: objective 75.8358076
Presolve removed 2271 rows and 553 columns
Presolve time: 0.01s
Presolved: 3841 rows, 3024 columns, 8984 nonzeros
Found heuristic solution: objective 55.7240525
Variable types: 2960 continuous, 64 integer (64 binary)

Root relaxation: objective 3.230065e+00, 1334 iterations, 0.01 seconds (0.03 work units)

    Nodes    |    Current Node    |     Objective Bounds      |     Work
 Expl Unexpl |  Obj  Depth IntInf | Incumbent    BestBd   Gap | It/Node Time

*    0     0               0       3.2300654    3.23007  0.00%     -    0s

Explored 1 nodes (1334 simplex iterations) in 0.04 seconds (0.05 work units)
Thread count was 24 (of 24 available processors)

Solution count 3: 3.23007 55.7241 75.8358 

Optimal solution found (tolerance 1.00e-04)
Best objective 3.230065405688e+00, best bound 3.230065405688e+00, gap 0.0000%

User-callback calls 53, time in user-callback 0.00 sec
  VI-only LB = 3.230065, x = [0, 0, 0, 0, 0, 0, 0, 0, 0, 0, 0, 0, 0, 0, 0, 0, 0, 0, 0, 0, 0, 0, 0, 0, 0, 0, 0, 0, 0, 0, 0, 0, 0, 0, 0, 0, 0, 0, 0, 0, 0, 0, 0, 0, 0, 0, 0, 0, 0, 0, 1, 1, 0, 0, 0, 0, 0, 0, 0, 0, 0, 0, 0, 0, 0, 0, 0, 0, 0, 0, 0, 0, 0, 0, 0, 0]
----------------------------------------

======================================================================
1. True-DRO Benders (bilinear subproblem via Gurobi NonConvex=2)
======================================================================
Set parameter Username
Set parameter LicenseID to value 2742039
Academic license - for non-commercial use only - expires 2026-11-20
Set parameter Username
Set parameter LicenseID to value 2742039
Academic license - for non-commercial use only - expires 2026-11-20
Set parameter DualReductions to value 0
Set parameter NonConvex to value 2
Set parameter LogFile to value "global_miqcp.log"
Set parameter Username
Set parameter LicenseID to value 2742039
Academic license - for non-commercial use only - expires 2026-11-20
Set parameter DualReductions to value 0
Set parameter NonConvex to value 2
Set parameter OptimalityTarget to value 1
Set parameter Username
Set parameter LicenseID to value 2742039
Academic license - for non-commercial use only - expires 2026-11-20
Set parameter Username
Set parameter LicenseID to value 2742039
Academic license - for non-commercial use only - expires 2026-11-20
Set parameter Username
Set parameter LicenseID to value 2742039
Academic license - for non-commercial use only - expires 2026-11-20

=== True-DRO Benders iter 1 ===
  OMP: t₀=3.230065, UB=Inf, gap=NaN, x=[0, 0, 0, 0, 0, 0, 0, 0, 0, 0, 0, 0, 0, 0, 0, 0, 0, 0, 0, 0, 0, 0, 0, 0, 0, 0, 0, 0, 0, 0, 0, 0, 0, 0, 0, 0, 0, 0, 0, 0, 0, 0, 0, 0, 0, 0, 0, 0, 0, 0, 1, 1, 0, 0, 0, 0, 0, 0, 0, 0, 0, 0, 0, 0, 0, 0, 0, 0, 0, 0, 0, 0, 0, 0, 0, 0] (0.044s)
Set parameter TimeLimit to value 30
Set parameter MIPGap to value 0.0001
Set parameter MIPFocus to value 0
Set parameter NonConvex to value 2
Set parameter MIPGap to value 0.0001
Set parameter DualReductions to value 0
Set parameter OptimalityTarget to value 1
Set parameter MIPFocus to value 0
Set parameter TimeLimit to value 30
Gurobi Optimizer version 13.0.0 build v13.0.0rc1 (win64 - Windows 10.0 (19045.2))

CPU model: AMD Ryzen 9 5900X 12-Core Processor, instruction set [SSE2|AVX|AVX2]
Thread count: 12 physical cores, 24 logical processors, using up to 24 threads

Non-default parameters:
TimeLimit  30
OptimalityTarget  1
DualReductions  0
NonConvex  2

Optimize a model with 8778 rows, 17605 columns and 42593 nonzeros (Max)
Model fingerprint: 0x04db77e6
Model has 3136 linear objective coefficients
Model has 3040 quadratic constraints
Coefficient statistics:
  Matrix range     [3e-01, 3e+01]
  QMatrix range    [1e+00, 1e+00]
  QLMatrix range   [1e+00, 1e+00]
  Objective range  [1e+00, 2e+00]
  Bounds range     [1e+00, 1e+01]
  RHS range        [5e-02, 2e+00]

Continuous model is non-convex -- solving with NL barrier

Presolve removed 3040 rows and 3040 columns
Presolve time: 0.02s
Presolved: 5738 rows, 14565 columns, 27393 nonzeros
Presolved model has 3040 quadratic constraint(s)
Ordering time: 0.01s

NL barrier statistics:
  Hessian NZ  : 3.040e+03
  Jacobian NZ : 4.259e+04
  Factor NZ   : 2.818e+05
  Factor Ops  : 6.918e+06
  Threads     : 1

                           Residuals
Iter     Objective      Primal     Dual      Compl     Step     Time
   0  -2.33434639e+04  1.16e+05  3.27e+03  7.77e+02  0.00e+00     0s
   1  -2.41552504e+04  8.88e+04  2.96e+03  7.13e+02  2.36e-01     0s
   2  -2.53822417e+04  5.57e+04  2.48e+03  6.33e+02  3.72e-01     0s
   3  -2.56713477e+04  4.93e+04  1.27e+03  2.85e+02  1.15e-01     0s
   4  -2.64794234e+04  3.13e+04  7.55e+02  1.61e+02  3.64e-01     0s
   5  -2.65460184e+04  1.70e+04  4.43e+02  9.21e+01  4.56e-01     0s
   6  -2.56328352e+04  1.10e+04  2.09e+02  4.04e+01  3.54e-01     0s
   7  -2.31156326e+04  6.51e+03  6.92e+01  1.26e+01  4.09e-01     0s
   8  -1.62834998e+04  1.86e+03  6.10e+00  1.82e+00  7.14e-01     0s
   9  -1.16647519e+04  4.18e+02  6.21e-01  1.18e+00  7.76e-01     0s
  10  -1.10071601e+04  2.16e+02  3.24e-01  1.10e+00  4.84e-01     0s
  11  -1.06363977e+04  1.12e+02  1.81e-01  1.06e+00  4.82e-01     0s
  12  -1.04725606e+04  6.87e+01  1.18e-01  1.04e+00  3.85e-01     0s
  13  -1.03958260e+04  4.85e+01  5.96e-02  1.01e+00  2.95e-01     0s
  14  -1.02295113e+04  2.42e-06  2.98e-04  1.00e+00  1.00e+00     0s
  15  -1.02267648e+04  4.33e-10  8.44e-07  1.00e+00  1.00e+00     0s
  16  -1.02266554e+04  3.97e-12  1.20e-08  1.00e+00  1.00e+00     0s
  17  -6.49194247e+03  4.77e-06  9.83e-03  4.56e-01  5.55e-01     0s
  18  -3.52212407e+03  2.35e-05  5.61e-02  3.40e-01  6.72e-01     0s
  19  -2.70040570e+03  1.92e-05  2.22e-02  2.44e-01  4.28e-01     0s
  20  -1.92243224e+03  2.50e-05  2.70e-02  1.69e-01  7.06e-01     0s
  21  -1.61243697e+03  2.28e-05  4.74e-03  1.50e-01  1.00e+00     0s
  22  -1.61481647e+03  1.01e-06  7.87e-05  1.50e-01  1.00e+00     0s
  23  -8.64044223e+02  5.48e-05  1.13e-02  8.92e-02  4.75e-01     0s
  24  -7.28300318e+02  5.73e-05  5.48e-02  5.39e-02  1.77e-01     0s
  25  -4.05866851e+02  1.51e-03  1.05e-01  4.05e-02  5.39e-01     0s
  26  -2.39039438e+02  6.60e-03  4.71e-01  3.11e-02  6.57e-01     0s
  27  -1.69234040e+02  1.24e-03  5.43e-02  2.25e-02  1.00e+00     0s
  28  -1.71599090e+02  2.47e-04  1.23e-03  2.25e-02  1.00e+00     0s
  29  -1.71639191e+02  1.07e-06  8.73e-06  2.25e-02  1.00e+00     0s
  30  -9.25825696e+01  1.77e-03  1.72e-01  1.52e-02  4.58e-01     0s
  31  -4.01182689e+01  1.49e-03  5.27e-02  6.58e-03  6.37e-01     0s
  32  -1.69237393e+01  5.00e-04  2.11e-02  3.38e-03  1.00e+00     0s
  33  -1.72590936e+01  5.31e-05  9.32e-04  3.38e-03  1.00e+00     0s
  34  -1.72453613e+01  1.75e-07  4.24e-06  3.38e-03  1.00e+00     0s
  35  -8.03391333e-01  1.34e-03  3.12e-02  1.39e-03  7.65e-01     0s
  36   5.73480422e+00  8.37e-03  1.16e-01  9.83e-04  1.00e+00     0s
  37   6.77715456e+00  4.18e-03  1.10e-02  5.15e-04  5.36e-01     0s
  38   6.91874600e+00  3.46e-03  5.61e-02  3.65e-04  1.74e-01     0s
  39   6.98737319e+00  2.09e-03  5.73e-03  3.49e-04  3.99e-01     0s
  40   7.01015172e+00  5.74e-04  6.99e-04  3.47e-04  7.25e-01     0s
  41   7.01025713e+00  2.43e-07  2.11e-06  3.46e-04  1.00e+00     0s
  42   7.01136447e+00  5.04e-09  5.82e-08  3.46e-04  1.00e+00     0s
  43   7.52458865e+00  8.12e-06  7.64e-03  1.52e-04  2.16e-01     0s
  44   7.70121557e+00  1.91e-05  1.76e-02  1.29e-04  8.32e-02     0s
  45   9.16355538e+00  1.23e-04  8.85e-04  5.06e-05  8.43e-01     0s
  46   9.19731593e+00  1.14e-04  3.97e-02  2.98e-05  8.53e-02     0s
  47   9.25603161e+00  9.32e-05  3.50e-02  2.77e-05  1.81e-01     0s
  48   9.44847697e+00  2.88e-05  2.63e-02  2.18e-05  7.27e-01     0s
  49   9.45056378e+00  2.79e-05  1.36e-02  1.92e-05  2.99e-02     0s
  50   9.52662096e+00  1.60e-05  7.88e-03  1.51e-05  1.00e+00     0s
  51   9.52911187e+00  5.46e-07  2.68e-03  1.46e-05  9.94e-01     0s
  52   9.52910650e+00  5.21e-07  2.81e-03  1.46e-05  4.67e-02     0s
  53   9.52914940e+00  3.43e-09  3.36e-07  1.43e-05  1.00e+00     0s
  54   9.52915644e+00  1.38e-11  3.01e-11  1.43e-05  1.00e+00     0s
  55   9.55594409e+00  6.32e-07  6.74e-03  6.23e-06  2.12e-01     1s
  56   9.56914272e+00  5.33e-07  1.99e-03  3.56e-06  1.58e-01     1s
  57   9.64672662e+00  4.89e-06  5.63e-03  1.13e-06  1.00e+00     1s
  58   9.64673822e+00  2.37e-10  1.72e-08  1.65e-07  1.00e+00     1s
  59   9.64673822e+00  1.31e-10  3.43e-10  1.65e-07  1.00e+00     1s
  60   9.64821669e+00  3.62e-09  2.54e-06  3.25e-09  1.00e+00     1s
  61   9.64821760e+00  2.23e-14  1.66e-09  1.00e-09  1.00e+00     1s

NL barrier solved model in 61 iterations and 0.56 seconds (0.75 work units)
First-order optimal solution
Solution objective 9.648217598483e+00

User-callback calls 363, time in user-callback 0.00 sec
  Sub: Z₀=9.648218 [LOCAL], α=[0.000,0.000,0.000,0.000,0.000,0.000,0.000,0.000,0.000,0.000,0.000,0.000,0.000,0.000,0.000,0.000,0.000,0.000,0.000,0.000,0.000,0.000,0.000,0.000,0.000,0.000,0.000,0.000,0.000,0.000,0.000,0.000,0.000,0.000,0.000,0.000,0.000,0.000,0.000,0.000,0.000,0.000,0.000,0.000,0.000,0.000,0.000,0.000,0.000,0.000,1.104,0.876,0.000,0.000,0.000,0.000,0.000,0.000,0.000,0.000,0.000,0.000,0.000,0.000,0.000,0.000,0.000,0.000,0.000,0.000,0.000,0.000,0.000,0.000,0.000,0.000]
  Iter 1: LB=3.230065  UB=Inf  gap=NaN
  Cut: intercept=-592.616989, π_x_range=[-417.7399, 302.5775]
  [ρ-diag] φ̂U=1.00, φ̃U=2.00, λU=2.00
    π_L range=[-135.9172, 92.5775], |π_L|_∞=135.9172
    π_F range=[-268.5527, 194.8994], |π_F|_∞=268.5527
    π_ψ range=[-13.3333, 17.1748], |π_ψ|_∞=17.1748
    ρ̂1: [0.0000, 8.8013], ρ̂3: [0.0000, 5.0000]
    ρ̃1: [0.0000, 6.7972], ρ̃3: [0.0000, 4.9686]
    ρ⁰1: [0.0000, 6.6667], ρ⁰3: [0.0000, 8.5874]
  [φ-diag] φ̂ actual: [-0.0000, 1.0000], φ̂U=1.00
  [φ-diag] φ̃ actual: [-0.0000, 2.0000], φ̃U=2.00
  Mini-Benders[1] (mw): LB=5.121018, Z₀(α*)=13.913785, intercept=21.685412
  Mini-Benders[2] (mw): LB=6.608270, Z₀(α*)=14.799647, intercept=19.534309
  Mini-Benders[3] (mw): LB=6.766660, Z₀(α*)=15.390340, intercept=21.368462
  Mini-Benders[4] (mw): LB=7.139828, Z₀(α*)=15.443284, intercept=21.806804
  Mini-Benders[5] (mw): LB=7.206089, Z₀(α*)=18.227655, intercept=24.237613
Set parameter NonConvex to value 2
Set parameter DualReductions to value 0
Set parameter LogFile to value "global_miqcp.log"
Gurobi Optimizer version 13.0.0 build v13.0.0rc1 (win64 - Windows 10.0 (19045.2))

CPU model: AMD Ryzen 9 5900X 12-Core Processor, instruction set [SSE2|AVX|AVX2]
Thread count: 12 physical cores, 24 logical processors, using up to 24 threads

Non-default parameters:
DualReductions  0
NonConvex  2

Optimize a model with 8778 rows, 17605 columns and 42593 nonzeros (Max)
Model fingerprint: 0xc285d4d2
Model has 3136 linear objective coefficients
Model has 3040 quadratic constraints
Coefficient statistics:
  Matrix range     [3e-01, 3e+01]
  QMatrix range    [1e+00, 1e+00]
  QLMatrix range   [1e+00, 1e+00]
  Objective range  [1e+00, 2e+00]
  Bounds range     [2e-02, 2e+00]
  RHS range        [5e-02, 2e+00]
Presolve removed 102 rows and 1712 columns
Presolve time: 0.01s
Presolved: 10044 rows, 15893 columns, 37737 nonzeros
Ordering time: 0.01s

Barrier statistics:
 Free vars  : 440
 AA' NZ     : 4.001e+04
 Factor NZ  : 3.444e+05 (roughly 13 MB of memory)
 Factor Ops : 3.342e+07 (less than 1 second per iteration)
 Threads    : 12

                  Objective                Residual
Iter       Primal          Dual         Primal    Dual     Compl     Time
   0  -9.09059635e+04 -0.00000000e+00  1.01e+04 1.00e+00  1.12e+02     0s
   1  -1.05632852e+05  1.01755295e+03  3.00e+03 5.87e+00  6.80e+01     0s
   2  -9.72118374e+04  1.32180191e+03  7.38e+02 1.39e+00  1.81e+01     0s
   3  -4.98030306e+04  9.57672501e+02  2.25e+01 2.90e-01  4.15e+00     0s
   4  -7.37225757e+03  7.11852867e+02  1.48e+00 8.70e-02  7.69e-01     0s
   5  -1.94628087e+03  3.44167244e+02  3.75e-01 1.45e-02  1.67e-01     0s
   6  -6.16596770e+02  1.64580450e+02  1.23e-01 2.07e-03  4.36e-02     0s
   7  -1.74697871e+02  9.73327036e+01  3.59e-02 8.63e-04  1.62e-02     0s
   8  -4.85393442e+01  7.60252028e+01  1.35e-02 5.82e-04  8.56e-03     0s
   9   4.43363140e+00  3.24156831e+01  2.63e-03 8.83e-05  1.69e-03     0s
  10   1.78183728e+01  2.25176074e+01  5.15e-04 5.16e-06  2.31e-04     0s
  11   2.04526282e+01  2.18636223e+01  1.43e-04 1.29e-06  6.98e-05     0s
  12   2.14521088e+01  2.15651342e+01  1.16e-05 2.52e-08  4.96e-06     0s
  13   2.15531341e+01  2.15536331e+01  1.63e-07 6.51e-10  2.96e-08     0s
  14   2.15533176e+01  2.15533176e+01  1.25e-09 5.16e-13  2.47e-12     0s

Barrier solved model in 14 iterations and 0.08 seconds (0.09 work units)
Optimal objective 2.15533176e+01


User-callback calls 67, time in user-callback 0.00 sec
  α-step: Z₀=21.553318, α=[0.000,0.000,0.000,0.000,0.000,0.000,0.000,0.000,0.000,0.000,0.000,0.000,0.000,0.000,0.000,0.000,0.000,0.000,0.000,0.000,0.000,0.000,0.000,0.000,0.000,0.000,0.000,0.000,0.000,0.000,0.000,0.000,0.000,0.000,0.000,0.000,0.000,0.000,0.000,0.000,0.000,0.000,0.000,0.000,0.000,0.000,0.000,0.000,0.000,0.000,0.303,1.678,0.000,0.000,0.000,0.000,0.000,0.000,0.000,0.000,0.000,0.000,0.000,0.000,0.000,0.000,0.000,0.000,0.000,0.000,0.000,0.000,0.000,0.000,0.000,0.000]
  Alt-Benders[1] (mw): LB=8.351084, Z₀(α*)=21.564516, intercept=24.691114
  Alt-Benders[2] (mw): LB=9.648218, Z₀(α*)=9.648227, intercept=21.368462
  Alt-Benders[3] (mw): LB=9.648226, Z₀(α*)=9.648227, intercept=21.368462
  Alt-Benders[4] (mw): LB=9.648226, Z₀(α*)=9.648227, intercept=21.368462
  Alt-Benders[5] (mw): LB=9.648226, Z₀(α*)=9.648227, intercept=21.368462
  OMP re-solve: 0.665s

=== True-DRO Benders iter 2 ===
  OMP: t₀=9.648226, UB=Inf, gap=NaN, x=[0, 0, 0, 0, 0, 0, 0, 0, 0, 0, 0, 0, 0, 0, 0, 0, 0, 0, 0, 0, 0, 0, 0, 0, 0, 0, 0, 0, 0, 0, 0, 0, 0, 0, 0, 0, 0, 0, 0, 0, 0, 0, 0, 0, 0, 0, 0, 0, 0, 0, 1, 1, 0, 0, 0, 0, 0, 0, 0, 0, 0, 0, 0, 0, 0, 0, 0, 0, 0, 0, 0, 0, 0, 0, 0, 0] (0.001s)
Set parameter TimeLimit to value 30
Set parameter MIPGap to value 0.0001
Set parameter MIPFocus to value 0
Gurobi Optimizer version 13.0.0 build v13.0.0rc1 (win64 - Windows 10.0 (19045.2))

CPU model: AMD Ryzen 9 5900X 12-Core Processor, instruction set [SSE2|AVX|AVX2]
Thread count: 12 physical cores, 24 logical processors, using up to 24 threads

Non-default parameters:
TimeLimit  30
OptimalityTarget  1
DualReductions  0
NonConvex  2

Optimize a model with 8778 rows, 17605 columns and 42593 nonzeros (Max)
Model fingerprint: 0x04db77e6
Model has 3136 linear objective coefficients
Model has 3040 quadratic constraints
Variable types: 17605 continuous, 0 integer (0 binary)
Coefficient statistics:
  Matrix range     [3e-01, 3e+01]
  QMatrix range    [1e+00, 1e+00]
  QLMatrix range   [1e+00, 1e+00]
  Objective range  [1e+00, 2e+00]
  Bounds range     [1e+00, 1e+01]
  RHS range        [5e-02, 2e+00]
Presolve removed 3040 rows and 3040 columns
Presolve time: 0.02s
Presolved: 5738 rows, 14565 columns, 27393 nonzeros
Presolved model has 3040 quadratic constraint(s)

Solving NLP to local optimality

Ordering time: 0.02s

NL barrier statistics:
  Hessian NZ  : 3.040e+03
  Jacobian NZ : 4.259e+04
  Factor NZ   : 2.818e+05
  Factor Ops  : 6.918e+06
  Threads     : 1

                           Residuals
Iter     Objective      Primal     Dual      Compl     Step     Time
   0  -2.33434639e+04  1.16e+05  3.27e+03  7.77e+02  0.00e+00     0s
   1  -2.41552504e+04  8.88e+04  2.96e+03  7.13e+02  2.36e-01     0s
   2  -2.53822417e+04  5.57e+04  2.48e+03  6.33e+02  3.72e-01     0s
   3  -2.56713477e+04  4.93e+04  1.27e+03  2.85e+02  1.15e-01     0s
   4  -2.64794234e+04  3.13e+04  7.55e+02  1.61e+02  3.64e-01     0s
   5  -2.65460184e+04  1.70e+04  4.43e+02  9.21e+01  4.56e-01     0s
   6  -2.56328352e+04  1.10e+04  2.09e+02  4.04e+01  3.54e-01     0s
   7  -2.31156326e+04  6.51e+03  6.92e+01  1.26e+01  4.09e-01     0s
   8  -1.62834998e+04  1.86e+03  6.10e+00  1.82e+00  7.14e-01     0s
   9  -1.16647519e+04  4.18e+02  6.21e-01  1.18e+00  7.76e-01     0s
  10  -1.10071601e+04  2.16e+02  3.24e-01  1.10e+00  4.84e-01     0s
  11  -1.06363977e+04  1.12e+02  1.81e-01  1.06e+00  4.82e-01     0s
  12  -1.04725606e+04  6.87e+01  1.18e-01  1.04e+00  3.85e-01     0s
  13  -1.03958260e+04  4.85e+01  5.96e-02  1.01e+00  2.95e-01     0s
  14  -1.02295113e+04  2.42e-06  2.98e-04  1.00e+00  1.00e+00     0s
  15  -1.02267648e+04  4.33e-10  8.44e-07  1.00e+00  1.00e+00     0s
  16  -1.02266554e+04  3.97e-12  1.20e-08  1.00e+00  1.00e+00     0s
  17  -6.49194247e+03  4.77e-06  9.83e-03  4.56e-01  5.55e-01     0s
  18  -3.52212407e+03  2.35e-05  5.61e-02  3.40e-01  6.72e-01     0s
  19  -2.70040570e+03  1.92e-05  2.22e-02  2.44e-01  4.28e-01     0s
  20  -1.92243224e+03  2.50e-05  2.70e-02  1.69e-01  7.06e-01     0s
  21  -1.61243697e+03  2.28e-05  4.74e-03  1.50e-01  1.00e+00     0s
  22  -1.61481647e+03  1.01e-06  7.87e-05  1.50e-01  1.00e+00     0s
  23  -8.64044223e+02  5.48e-05  1.13e-02  8.92e-02  4.75e-01     0s
  24  -7.28300318e+02  5.73e-05  5.48e-02  5.39e-02  1.77e-01     0s
  25  -4.05866851e+02  1.51e-03  1.05e-01  4.05e-02  5.39e-01     0s
  26  -2.39039438e+02  6.60e-03  4.71e-01  3.11e-02  6.57e-01     0s
  27  -1.69234040e+02  1.24e-03  5.43e-02  2.25e-02  1.00e+00     0s
  28  -1.71599090e+02  2.47e-04  1.23e-03  2.25e-02  1.00e+00     0s
  29  -1.71639191e+02  1.07e-06  8.73e-06  2.25e-02  1.00e+00     0s
  30  -9.25825696e+01  1.77e-03  1.72e-01  1.52e-02  4.58e-01     0s
  31  -4.01182689e+01  1.49e-03  5.27e-02  6.58e-03  6.37e-01     0s
  32  -1.69237393e+01  5.00e-04  2.11e-02  3.38e-03  1.00e+00     0s
  33  -1.72590936e+01  5.31e-05  9.32e-04  3.38e-03  1.00e+00     0s
  34  -1.72453613e+01  1.75e-07  4.24e-06  3.38e-03  1.00e+00     0s
  35  -8.03391333e-01  1.34e-03  3.12e-02  1.39e-03  7.65e-01     0s
  36   5.73480422e+00  8.37e-03  1.16e-01  9.83e-04  1.00e+00     0s
  37   6.77715456e+00  4.18e-03  1.10e-02  5.15e-04  5.36e-01     0s
  38   6.91874600e+00  3.46e-03  5.61e-02  3.65e-04  1.74e-01     0s
  39   6.98737319e+00  2.09e-03  5.73e-03  3.49e-04  3.99e-01     0s
  40   7.01015172e+00  5.74e-04  6.99e-04  3.47e-04  7.25e-01     0s
  41   7.01025713e+00  2.43e-07  2.11e-06  3.46e-04  1.00e+00     0s
  42   7.01136447e+00  5.04e-09  5.82e-08  3.46e-04  1.00e+00     0s
  43   7.52458865e+00  8.12e-06  7.64e-03  1.52e-04  2.16e-01     0s
  44   7.70121557e+00  1.91e-05  1.76e-02  1.29e-04  8.32e-02     0s
  45   9.16355538e+00  1.23e-04  8.85e-04  5.06e-05  8.43e-01     0s
  46   9.19731593e+00  1.14e-04  3.97e-02  2.98e-05  8.53e-02     0s
  47   9.25603161e+00  9.32e-05  3.50e-02  2.77e-05  1.81e-01     0s
  48   9.44847697e+00  2.88e-05  2.63e-02  2.18e-05  7.27e-01     0s
  49   9.45056378e+00  2.79e-05  1.36e-02  1.92e-05  2.99e-02     0s
  50   9.52662096e+00  1.60e-05  7.88e-03  1.51e-05  1.00e+00     0s
  51   9.52911187e+00  5.46e-07  2.68e-03  1.46e-05  9.94e-01     0s
  52   9.52910650e+00  5.21e-07  2.81e-03  1.46e-05  4.67e-02     0s
  53   9.52914940e+00  3.43e-09  3.36e-07  1.43e-05  1.00e+00     1s
  54   9.52915644e+00  1.38e-11  3.01e-11  1.43e-05  1.00e+00     1s
  55   9.55594409e+00  6.32e-07  6.74e-03  6.23e-06  2.12e-01     1s
  56   9.56914272e+00  5.33e-07  1.99e-03  3.56e-06  1.58e-01     1s
  57   9.64672662e+00  4.89e-06  5.63e-03  1.13e-06  1.00e+00     1s
  58   9.64673822e+00  2.37e-10  1.72e-08  1.65e-07  1.00e+00     1s
  59   9.64673822e+00  1.31e-10  3.43e-10  1.65e-07  1.00e+00     1s
  60   9.64821669e+00  3.62e-09  2.54e-06  3.25e-09  1.00e+00     1s
  61   9.64821760e+00  2.23e-14  1.66e-09  1.00e-09  1.00e+00     1s

NL barrier solved model in 61 iterations and 0.59 seconds (0.74 work units)
First-order optimal solution
Solution objective 9.648217598483e+00

User-callback calls 364, time in user-callback 0.00 sec
  Sub: Z₀=9.648218 [LOCAL], α=[0.000,0.000,0.000,0.000,0.000,0.000,0.000,0.000,0.000,0.000,0.000,0.000,0.000,0.000,0.000,0.000,0.000,0.000,0.000,0.000,0.000,0.000,0.000,0.000,0.000,0.000,0.000,0.000,0.000,0.000,0.000,0.000,0.000,0.000,0.000,0.000,0.000,0.000,0.000,0.000,0.000,0.000,0.000,0.000,0.000,0.000,0.000,0.000,0.000,0.000,1.104,0.876,0.000,0.000,0.000,0.000,0.000,0.000,0.000,0.000,0.000,0.000,0.000,0.000,0.000,0.000,0.000,0.000,0.000,0.000,0.000,0.000,0.000,0.000,0.000,0.000]
  Iter 2: LB=9.648226  UB=Inf  gap=NaN
  Cut: intercept=-592.616989, π_x_range=[-417.7399, 302.5775]
  [ρ-diag] φ̂U=1.00, φ̃U=2.00, λU=2.00
    π_L range=[-135.9172, 92.5775], |π_L|_∞=135.9172
    π_F range=[-268.5527, 194.8994], |π_F|_∞=268.5527
    π_ψ range=[-13.3333, 17.1748], |π_ψ|_∞=17.1748
    ρ̂1: [0.0000, 8.8013], ρ̂3: [0.0000, 5.0000]
    ρ̃1: [0.0000, 6.7972], ρ̃3: [0.0000, 4.9686]
    ρ⁰1: [0.0000, 6.6667], ρ⁰3: [0.0000, 8.5874]
  [φ-diag] φ̂ actual: [0.0000, 1.0000], φ̂U=1.00
  [φ-diag] φ̃ actual: [-0.0000, 0.0000], φ̃U=2.00
  Mini-Benders[1] (mw): LB=9.648226, Z₀(α*)=9.648227, intercept=21.368461
  Mini-Benders[2] (mw): LB=9.648226, Z₀(α*)=9.648227, intercept=21.368461
  Mini-Benders[3]: LB stagnated, break
Gurobi Optimizer version 13.0.0 build v13.0.0rc1 (win64 - Windows 10.0 (19045.2))

CPU model: AMD Ryzen 9 5900X 12-Core Processor, instruction set [SSE2|AVX|AVX2]
Thread count: 12 physical cores, 24 logical processors, using up to 24 threads

Non-default parameters:
DualReductions  0
NonConvex  2

Optimize a model with 8778 rows, 17605 columns and 42593 nonzeros (Max)
Model fingerprint: 0x6d2f0a7d
Model has 3136 linear objective coefficients
Model has 3040 quadratic constraints
Coefficient statistics:
  Matrix range     [3e-01, 3e+01]
  QMatrix range    [1e+00, 1e+00]
  QLMatrix range   [1e+00, 1e+00]
  Objective range  [1e+00, 2e+00]
  Bounds range     [2e-02, 2e+00]
  RHS range        [5e-02, 2e+00]
Presolve removed 102 rows and 1712 columns
Presolve time: 0.01s
Presolved: 10044 rows, 15893 columns, 37737 nonzeros
Ordering time: 0.01s

Barrier statistics:
 Free vars  : 440
 AA' NZ     : 4.001e+04
 Factor NZ  : 3.444e+05 (roughly 13 MB of memory)
 Factor Ops : 3.342e+07 (less than 1 second per iteration)
 Threads    : 12

                  Objective                Residual
Iter       Primal          Dual         Primal    Dual     Compl     Time
   0  -9.08979450e+04 -0.00000000e+00  1.01e+04 1.00e+00  1.12e+02     0s
   1  -1.05675130e+05  1.01860160e+03  2.98e+03 5.87e+00  6.78e+01     0s
   2  -9.70999632e+04  1.31210234e+03  7.24e+02 1.39e+00  1.81e+01     0s
   3  -4.54922358e+04  9.51776928e+02  2.15e+01 2.97e-01  3.97e+00     0s
   4  -7.87041061e+03  6.91670806e+02  1.81e+00 8.34e-02  7.75e-01     0s
   5  -2.10506204e+03  3.74133285e+02  4.68e-01 1.37e-02  1.63e-01     0s
   6  -4.45185042e+02  1.69569612e+02  1.08e-01 2.22e-03  3.57e-02     0s
   7  -1.49427212e+02  1.03241453e+02  3.54e-02 1.17e-03  1.61e-02     0s
   8  -3.67786719e+01  6.41966081e+01  9.08e-03 6.14e-04  7.28e-03     0s
   9   1.96641959e+00  1.30323527e+01  9.74e-04 1.64e-05  5.85e-04     0s
  10   9.29870365e+00  9.79180950e+00  3.24e-05 4.58e-07  2.43e-05     0s
  11   9.64589853e+00  9.65102959e+00  1.25e-07 6.90e-09  2.83e-07     0s
  12   9.64822662e+00  9.64822663e+00  1.78e-10 3.29e-12  5.87e-13     0s

Barrier solved model in 12 iterations and 0.08 seconds (0.08 work units)
Optimal objective 9.64822662e+00


User-callback calls 62, time in user-callback 0.00 sec
  α-step: Z₀=9.648227, α=[0.000,0.000,0.000,0.000,0.000,0.000,0.000,0.000,0.000,0.000,0.000,0.000,0.000,0.000,0.000,0.000,0.000,0.000,0.000,0.000,0.000,0.000,0.000,0.000,0.000,0.000,0.000,0.000,0.000,0.000,0.000,0.000,0.000,0.000,0.000,0.000,0.000,0.000,0.000,0.000,0.000,0.000,0.000,0.000,0.000,0.000,0.000,0.000,0.000,0.000,1.288,0.692,0.000,0.000,0.000,0.000,0.000,0.000,0.000,0.000,0.000,0.000,0.000,0.000,0.000,0.000,0.000,0.000,0.000,0.000,0.000,0.000,0.000,0.000,0.000,0.000]
  Alt-Benders[1] (mw): LB=9.648226, Z₀(α*)=9.648227, intercept=21.368462
  Alt-Benders[2] (mw): LB=9.648226, Z₀(α*)=9.648227, intercept=21.368462
  Alt-Benders[3]: LB stagnated, break
  OMP re-solve: 0.001s

=== True-DRO Benders iter 3 ===
  OMP: t₀=9.648226, UB=Inf, gap=NaN, x=[0, 0, 0, 0, 0, 0, 0, 0, 0, 0, 0, 0, 0, 0, 0, 0, 0, 0, 0, 0, 0, 0, 0, 0, 0, 0, 0, 0, 0, 0, 0, 0, 0, 0, 0, 0, 0, 0, 0, 0, 0, 0, 0, 0, 0, 0, 0, 0, 0, 0, 1, 1, 0, 0, 0, 0, 0, 0, 0, 0, 0, 0, 0, 0, 0, 0, 0, 0, 0, 0, 0, 0, 0, 0, 0, 0] (0.001s)
Set parameter TimeLimit to value 30
Set parameter MIPGap to value 0.0001
Set parameter MIPFocus to value 0
Gurobi Optimizer version 13.0.0 build v13.0.0rc1 (win64 - Windows 10.0 (19045.2))

CPU model: AMD Ryzen 9 5900X 12-Core Processor, instruction set [SSE2|AVX|AVX2]
Thread count: 12 physical cores, 24 logical processors, using up to 24 threads

Non-default parameters:
TimeLimit  30
DualReductions  0
NonConvex  2

Optimize a model with 8778 rows, 17605 columns and 42593 nonzeros (Max)
Model fingerprint: 0xb3fea1d8
Model has 3136 linear objective coefficients
Model has 3040 quadratic constraints
Coefficient statistics:
  Matrix range     [3e-01, 3e+01]
  QMatrix range    [1e+00, 1e+00]
  QLMatrix range   [1e+00, 1e+00]
  Objective range  [1e+00, 2e+00]
  Bounds range     [1e+00, 2e+00]
  RHS range        [5e-02, 2e+00]

Continuous model is non-convex -- solving as a MIP

Presolve time: 0.02s
Presolved: 20938 rows, 17606 columns, 66913 nonzeros
Presolved model has 3040 bilinear constraint(s)
Variable types: 17606 continuous, 0 integer (0 binary)
Found heuristic solution: objective 9.6482188

Root relaxation: objective 1.224407e+01, 7396 iterations, 0.20 seconds (0.44 work units)

    Nodes    |    Current Node    |     Objective Bounds      |     Work
 Expl Unexpl |  Obj  Depth IntInf | Incumbent    BestBd   Gap | It/Node Time

     0     0   12.24407    0   90    9.64822   12.24407  26.9%     -    0s
     0     0          -    0         9.64822    9.64823  0.00%     -    0s

Cutting planes:
  RLT: 46

Explored 1 nodes (8110 simplex iterations) in 0.86 seconds (1.24 work units)
Thread count was 24 (of 24 available processors)

Solution count 1: 9.64822 

Optimal solution found (tolerance 1.00e-04)
Best objective 9.648218753463e+00, best bound 9.648226622427e+00, gap 0.0001%

User-callback calls 137, time in user-callback 0.00 sec
  Sub: Z₀=9.648219, α=[0.000,0.000,0.000,0.000,0.000,0.000,0.000,0.000,0.000,0.000,0.000,0.000,0.000,0.000,0.000,0.000,0.000,0.000,0.000,0.000,0.000,0.000,0.000,0.000,0.000,0.000,0.000,0.000,0.000,0.000,0.000,0.000,0.000,0.000,0.000,0.000,0.000,0.000,0.000,0.000,0.000,0.000,0.000,0.000,0.000,0.000,0.000,0.000,0.000,0.000,0.995,0.986,0.000,0.000,0.000,0.000,0.000,0.000,0.000,0.000,0.000,0.000,0.000,0.000,0.000,0.000,0.000,0.000,0.000,0.000,0.000,0.000,0.000,0.000,0.000,0.000]
  Iter 3: LB=9.648226  UB=9.648219  gap=7.10e-07
True-DRO Benders converged at iter 3 (gap=7.10e-07)
  Wall time: 14.75 sec
  OMP  time: mean=0.388s, median=0.359s, max=0.690s
  Sub  time (exact): mean=0.896s, median=0.896s, q90=0.896s, max=0.896s (n=1/3)

----------------------------------------
True-DRO: status=Optimal, Z₀=9.648219, iters=3, time=14.75s
  LB=9.648226, UB=9.648219, gap=7.10e-07
  x* = [0, 0, 0, 0, 0, 0, 0, 0, 0, 0, 0, 0, 0, 0, 0, 0, 0, 0, 0, 0, 0, 0, 0, 0, 0, 0, 0, 0, 0, 0, 0, 0, 0, 0, 0, 0, 0, 0, 0, 0, 0, 0, 0, 0, 0, 0, 0, 0, 0, 0, 1, 1, 0, 0, 0, 0, 0, 0, 0, 0, 0, 0, 0, 0, 0, 0, 0, 0, 0, 0, 0, 0, 0, 0, 0, 0]
  α* = [0.000, 0.000, 0.000, 0.000, 0.000, 0.000, 0.000, 0.000, 0.000, 0.000, 0.000, 0.000, 0.000, 0.000, 0.000, 0.000, 0.000, 0.000, 0.000, 0.000, 0.000, 0.000, 0.000, 0.000, 0.000, 0.000, 0.000, 0.000, 0.000, 0.000, 0.000, 0.000, 0.000, 0.000, 0.000, 0.000, 0.000, 0.000, 0.000, 0.000, 0.000, 0.000, 0.000, 0.000, 0.000, 0.000, 0.000, 0.000, 0.000, 0.000, 0.995, 0.986, 0.000, 0.000, 0.000, 0.000, 0.000, 0.000, 0.000, 0.000, 0.000, 0.000, 0.000, 0.000, 0.000, 0.000, 0.000, 0.000, 0.000, 0.000, 0.000, 0.000, 0.000, 0.000, 0.000, 0.000]
  Profile saved → C:\Users\user\robust_bilevel_network_games\true_dro\profiles.jls (29 entries)
============================================================
Primal Recovery: x* → α* → (h*, λ*, ψ⁰*)
============================================================
  x* = [0, 0, 0, 0, 0, 0, 0, 0, 0, 0, 0, 0, 0, 0, 0, 0, 0, 0, 0, 0, 0, 0, 0, 0, 0, 0, 0, 0, 0, 0, 0, 0, 0, 0, 0, 0, 0, 0, 0, 0, 0, 0, 0, 0, 0, 0, 0, 0, 0, 0, 1, 1, 0, 0, 0, 0, 0, 0, 0, 0, 0, 0, 0, 0, 0, 0, 0, 0, 0, 0, 0, 0, 0, 0, 0, 0]
  α* = [0.0000, 0.0000, 0.0000, 0.0000, 0.0000, 0.0000, 0.0000, 0.0000, 0.0000, 0.0000, 0.0000, 0.0000, 0.0000, 0.0000, 0.0000, 0.0000, 0.0000, 0.0000, 0.0000, 0.0000, 0.0000, 0.0000, 0.0000, 0.0000, 0.0000, 0.0000, 0.0000, 0.0000, 0.0000, 0.0000, 0.0000, 0.0000, 0.0000, 0.0000, 0.0000, 0.0000, 0.0000, 0.0000, 0.0000, 0.0000, 0.0000, 0.0000, 0.0000, 0.0000, 0.0000, 0.0000, 0.0000, 0.0000, 0.0000, 0.0000, 0.9945, 0.9860, 0.0000, 0.0000, 0.0000, 0.0000, 0.0000, 0.0000, 0.0000, 0.0000, 0.0000, 0.0000, 0.0000, 0.0000, 0.0000, 0.0000, 0.0000, 0.0000, 0.0000, 0.0000, 0.0000, 0.0000, 0.0000, 0.0000, 0.0000, 0.0000]

  Piece-F obj = 0.000000
  λ*   = -0.000000
  Σh*  = 0.000000  (budget: λw = -0.000000)

  h* (nonzero arcs):
  ψ⁰* (nonzero arcs):

  Per-scenario sink flow ỹ_ts:
    s=1: ỹ_ts=-0.000000
    s=2: ỹ_ts=-0.000000
    s=3: ỹ_ts=-0.000000
    s=4: ỹ_ts=-0.000000
    s=5: ỹ_ts=-0.000000
    s=6: ỹ_ts=-0.000000
    s=7: ỹ_ts=-0.000000
    s=8: ỹ_ts=-0.000000
    s=9: ỹ_ts=-0.000000
    s=10: ỹ_ts=-0.000000
    s=11: ỹ_ts=-0.000000
    s=12: ỹ_ts=-0.000000
    s=13: ỹ_ts=-0.000000
    s=14: ỹ_ts=-0.000000
    s=15: ỹ_ts=-0.000000
    s=16: ỹ_ts=-0.000000
    s=17: ỹ_ts=-0.000000
    s=18: ỹ_ts=-0.000000
    s=19: ỹ_ts=-0.000000
    s=20: ỹ_ts=-0.000000

  Z₀(Benders) = 9.648219
  Piece-F(recovered) = 0.000000

Finished: 2026-04-17T14:28:24.496
